100
32
1
2
13
7
17
17
19
3
8
8
9
18
10
14
9
23
2
10
7
2
1
4
11
2
1
1
1
2
16
21
2
1
3
18
1
1
1
3
3
18
1
5
5
1
4
1
1
4
1
1
2
3
1
19
17
4
1
2
2
2
1
3
3
1
3
3
1
4
2
1
2
1
18
3
2
2
5
1
1
1
4
1
1
4
17
2
4
1
1
1
17
1
1
1
1
1
2
1
4
2